language ESSENCE' 1.0

letting jobs = 102
letting horizon = 804
letting resourcesRenew = 2
letting resourcesNonrenew = 2
letting resourceLimits = [17, 14, 275, 263]
letting successors = [[2, 3, 4, 6, 7, 8, 9, 10, 11, 16, 17, 18, 19, 22, 28, 33], [41, 34, 31, 29, 27, 26, 14, 5], [52, 50, 49, 48, 45, 43, 39, 38, 37, 36, 34, 32, 31, 30, 29, 27, 26, 25, 21], [52, 50, 43, 40, 39, 37, 35, 34, 32, 31, 25, 24, 15], [58, 49, 47, 39, 36, 35, 23, 13], [45, 41, 36, 30, 29, 27, 23, 14], [53, 50, 47, 38, 36, 35, 30, 12], [50, 48, 45, 44, 41, 37, 34, 27, 25, 20], [58, 54, 53, 50, 47, 45, 44, 41, 40, 39, 38, 34, 31, 25], [77, 58, 54, 52, 46, 44, 43, 41, 40, 39, 38, 37, 35, 32, 30], [83, 50, 46, 41, 37, 35, 29, 26, 24], [49, 45, 43, 40, 39, 31, 21], [57, 54, 53, 50, 48, 45, 43, 40, 38, 30, 25], [83, 77, 64, 61, 60, 58, 54, 52, 50, 49, 47, 46, 40, 39, 38, 35], [83, 72, 61, 58, 54, 53, 47, 46, 45, 44, 41, 38, 29], [60, 55, 54, 49, 47, 40, 39, 31, 30], [83, 77, 66, 64, 58, 55, 54, 50, 42, 40, 38, 37], [83, 68, 61, 58, 56, 50, 41, 37, 36, 35, 29], [83, 64, 59, 58, 57, 54, 50, 46, 44, 43, 42], [83, 70, 66, 64, 60, 58, 56, 54, 53, 47, 42, 38], [77, 72, 66, 64, 58, 57, 56, 54, 46, 41], [83, 71, 66, 64, 61, 46, 42, 39, 38], [83, 77, 66, 64, 59, 57, 56, 54, 44, 42], [61, 60, 56, 51, 49, 47, 45, 42], [83, 80, 77, 76, 71, 69, 66, 64, 63, 61, 60, 56, 55, 46], [80, 76, 71, 70, 67, 66, 64, 60, 59, 58, 57, 56, 55, 53], [83, 75, 72, 71, 63, 59, 56, 35], [82, 80, 72, 71, 70, 68, 67, 66, 64, 63, 61, 60, 58, 57, 55], [82, 77, 75, 71, 70, 67, 66, 65, 64, 63, 62, 57, 51], [83, 82, 75, 72, 71, 70, 67, 66, 65, 64, 59, 51], [83, 82, 81, 71, 67, 62, 61, 57, 42], [83, 81, 76, 75, 73, 70, 68, 67, 63, 57, 56, 51], [100, 83, 80, 77, 76, 74, 70, 69, 68, 66, 64, 63, 62], [82, 80, 76, 75, 71, 67, 65, 64, 63, 57, 55], [82, 81, 76, 74, 73, 70, 67, 65, 62, 55, 51], [100, 82, 80, 76, 74, 70, 69, 64, 63, 60], [100, 82, 81, 80, 75, 67, 47], [82, 81, 76, 73, 65, 63, 59, 51], [100, 99, 80, 78, 76, 75, 73, 70, 69, 67, 65, 57], [81, 80, 73, 72, 70, 69, 62, 59, 56], [82, 76, 70, 63, 60, 51], [100, 80, 75, 74, 73, 72, 69, 68, 63], [82, 73, 71, 70, 67, 65, 62, 61, 55], [101, 100, 80, 79, 76, 73, 71, 70, 67, 60], [101, 79, 78, 75, 71, 67, 65, 64, 62], [100, 95, 94, 93, 82, 81, 78, 75, 74, 73, 68, 67, 62], [99, 76, 73, 69, 65, 63, 57], [101, 100, 97, 96, 80, 75, 70, 63, 62], [100, 98, 97, 96, 95, 93, 91, 90, 82, 80, 75, 74, 71, 70], [100, 99, 96, 95, 93, 92, 91, 90, 89, 79, 78, 76, 69], [100, 99, 96, 94, 93, 92, 91, 90, 87, 80, 79, 78, 69], [99, 98, 97, 89, 84, 81, 78, 75, 65], [100, 97, 96, 95, 94, 93, 62], [100, 98, 97, 95, 94, 93, 91, 90, 78, 71], [100, 99, 98, 95, 94, 93, 91, 90, 89, 88, 87, 85, 84, 78], [99, 98, 96, 95, 94, 93, 91, 90, 89, 87, 86, 84, 82], [101, 96, 95, 94, 86, 85, 79, 74], [101, 99, 95, 93, 91, 88, 81, 73], [100, 93, 90, 74, 68], [89, 84, 75, 65], [99, 96, 93, 91, 86, 85, 74], [99, 98, 92, 91, 90, 89, 88, 87, 86, 85, 84], [95, 94, 93, 91, 90, 88, 84, 79, 78], [99, 95, 81, 73], [96, 95, 94, 93, 91, 88, 87, 86, 85], [97, 96, 88, 86, 85, 84, 79], [92, 91, 90, 89, 87, 85, 84], [97, 96, 92, 88, 86, 85, 84], [101, 97, 88, 86, 85, 84], [94, 89, 87, 86, 85, 84], [92, 88, 87, 86, 85, 84], [99, 91, 90, 89, 87, 85], [97, 89, 87, 85, 84], [92, 89, 88, 87, 84], [92, 88, 87, 86, 85], [94, 87, 86, 85, 84], [90, 88, 86, 84], [86], [98], [84], [90], [85], [86], [102], [102], [102], [102], [102], [102], [102], [102], [102], [102], [102], [102], [102], [102], [102], [102], [102], [102], []]
letting durations = [[0], [4, 5, 10], [4, 7, 10], [1, 2, 8], [1, 6, 7], [2, 3, 5], [3, 5, 7], [5, 7, 9], [5, 9, 10], [2, 6, 7], [1, 7, 8], [1, 3, 10], [5, 8, 10], [2, 9, 10], [7, 8, 9], [5, 6, 7], [2, 3, 9], [2, 6, 8], [6, 6, 7], [1, 6, 9], [3, 4, 5], [3, 3, 5], [3, 5, 8], [2, 3, 6], [3, 3, 4], [4, 5, 7], [4, 5, 9], [5, 5, 7], [2, 6, 6], [7, 8, 10], [6, 8, 9], [3, 3, 6], [1, 2, 9], [8, 9, 10], [3, 3, 8], [7, 7, 8], [3, 4, 7], [3, 4, 6], [1, 3, 4], [2, 7, 10], [3, 6, 7], [3, 3, 5], [4, 5, 9], [5, 7, 8], [3, 4, 8], [5, 7, 10], [4, 8, 10], [2, 6, 10], [3, 6, 10], [5, 8, 9], [2, 5, 8], [1, 4, 8], [1, 2, 6], [2, 6, 8], [3, 3, 6], [6, 8, 10], [2, 6, 10], [1, 6, 7], [1, 4, 7], [2, 4, 8], [1, 8, 8], [5, 6, 7], [1, 1, 3], [4, 5, 9], [6, 9, 10], [1, 3, 10], [4, 9, 9], [5, 6, 8], [7, 9, 10], [3, 6, 9], [1, 8, 8], [1, 5, 8], [6, 7, 9], [1, 3, 6], [2, 9, 9], [4, 5, 5], [2, 3, 10], [2, 6, 7], [2, 2, 8], [5, 9, 10], [1, 5, 7], [3, 3, 6], [2, 3, 10], [1, 8, 10], [5, 6, 9], [4, 5, 9], [2, 4, 7], [2, 6, 10], [6, 7, 9], [2, 4, 8], [1, 9, 10], [1, 6, 10], [1, 8, 9], [5, 7, 8], [1, 6, 9], [1, 9, 10], [1, 2, 3], [1, 7, 8], [1, 3, 3], [4, 7, 8], [5, 10, 10], [0]]
letting resourceUsage = [[[0, 0, 0, 0]], [[4, 0, 0, 7], [0, 1, 0, 6], [0, 1, 2, 0]], [[2, 0, 10, 0], [1, 0, 0, 5], [0, 2, 6, 0]], [[5, 0, 5, 0], [0, 3, 5, 0], [3, 0, 0, 3]], [[4, 0, 1, 0], [3, 0, 2, 0], [3, 0, 1, 0]], [[1, 0, 9, 0], [1, 0, 5, 0], [1, 0, 0, 4]], [[5, 0, 5, 0], [0, 4, 0, 3], [5, 0, 0, 2]], [[2, 0, 10, 0], [2, 0, 6, 0], [0, 1, 0, 6]], [[5, 0, 0, 8], [5, 0, 0, 6], [5, 0, 0, 4]], [[3, 0, 0, 9], [0, 4, 0, 8], [3, 0, 8, 0]], [[0, 5, 0, 6], [0, 3, 0, 5], [0, 1, 9, 0]], [[3, 0, 9, 0], [2, 0, 0, 8], [0, 2, 6, 0]], [[2, 0, 0, 6], [0, 3, 7, 0], [1, 0, 0, 4]], [[0, 5, 0, 3], [0, 4, 7, 0], [1, 0, 7, 0]], [[0, 3, 4, 0], [0, 2, 0, 2], [3, 0, 0, 2]], [[3, 0, 9, 0], [0, 3, 0, 5], [0, 1, 8, 0]], [[0, 3, 3, 0], [0, 2, 3, 0], [0, 2, 0, 1]], [[0, 4, 8, 0], [1, 0, 0, 8], [1, 0, 3, 0]], [[4, 0, 0, 1], [3, 0, 7, 0], [0, 5, 7, 0]], [[0, 3, 4, 0], [0, 2, 0, 6], [0, 2, 2, 0]], [[1, 0, 9, 0], [1, 0, 0, 9], [0, 2, 7, 0]], [[3, 0, 2, 0], [0, 4, 0, 10], [0, 4, 0, 9]], [[0, 4, 5, 0], [4, 0, 0, 9], [0, 4, 3, 0]], [[3, 0, 0, 6], [0, 1, 0, 5], [2, 0, 2, 0]], [[4, 0, 0, 5], [0, 2, 0, 5], [0, 2, 0, 4]], [[0, 5, 0, 8], [0, 5, 0, 6], [1, 0, 1, 0]], [[0, 4, 0, 7], [0, 3, 6, 0], [0, 2, 6, 0]], [[3, 0, 1, 0], [0, 2, 0, 7], [0, 2, 0, 3]], [[3, 0, 0, 7], [2, 0, 0, 5], [0, 2, 4, 0]], [[0, 2, 0, 7], [0, 2, 0, 6], [1, 0, 0, 3]], [[3, 0, 8, 0], [0, 3, 0, 4], [3, 0, 4, 0]], [[0, 5, 0, 6], [1, 0, 0, 5], [1, 0, 0, 4]], [[2, 0, 5, 0], [0, 2, 4, 0], [0, 2, 3, 0]], [[5, 0, 0, 7], [4, 0, 8, 0], [0, 2, 6, 0]], [[0, 3, 7, 0], [4, 0, 0, 3], [0, 2, 6, 0]], [[4, 0, 8, 0], [0, 2, 0, 5], [4, 0, 0, 4]], [[0, 2, 0, 3], [0, 2, 0, 1], [1, 0, 5, 0]], [[5, 0, 4, 0], [4, 0, 4, 0], [3, 0, 0, 8]], [[0, 3, 4, 0], [0, 3, 3, 0], [4, 0, 2, 0]], [[0, 3, 9, 0], [0, 3, 8, 0], [0, 3, 0, 2]], [[4, 0, 7, 0], [0, 3, 0, 4], [3, 0, 7, 0]], [[0, 1, 8, 0], [3, 0, 7, 0], [3, 0, 0, 6]], [[1, 0, 8, 0], [0, 2, 8, 0], [0, 1, 6, 0]], [[4, 0, 10, 0], [2, 0, 7, 0], [0, 3, 5, 0]], [[0, 5, 0, 4], [0, 3, 0, 4], [4, 0, 0, 4]], [[0, 5, 9, 0], [0, 3, 8, 0], [0, 2, 8, 0]], [[0, 4, 4, 0], [0, 3, 0, 7], [3, 0, 3, 0]], [[5, 0, 5, 0], [4, 0, 4, 0], [4, 0, 0, 1]], [[0, 1, 0, 7], [0, 1, 0, 6], [3, 0, 0, 6]], [[5, 0, 6, 0], [0, 1, 5, 0], [3, 0, 4, 0]], [[4, 0, 0, 8], [4, 0, 5, 0], [0, 3, 4, 0]], [[0, 2, 0, 10], [2, 0, 4, 0], [0, 2, 0, 9]], [[0, 3, 0, 6], [2, 0, 0, 4], [0, 2, 4, 0]], [[3, 0, 6, 0], [3, 0, 5, 0], [3, 0, 0, 3]], [[3, 0, 0, 8], [0, 1, 0, 8], [0, 1, 6, 0]], [[5, 0, 0, 8], [0, 2, 7, 0], [0, 1, 7, 0]], [[4, 0, 0, 7], [0, 1, 0, 6], [2, 0, 0, 5]], [[3, 0, 0, 4], [2, 0, 0, 3], [0, 2, 5, 0]], [[2, 0, 5, 0], [2, 0, 0, 2], [0, 2, 3, 0]], [[0, 3, 0, 7], [2, 0, 0, 5], [0, 3, 0, 4]], [[2, 0, 5, 0], [1, 0, 3, 0], [0, 2, 0, 3]], [[3, 0, 0, 8], [0, 1, 0, 6], [0, 1, 0, 5]], [[0, 5, 2, 0], [3, 0, 2, 0], [2, 0, 0, 3]], [[4, 0, 8, 0], [2, 0, 0, 5], [2, 0, 0, 4]], [[0, 3, 8, 0], [3, 0, 0, 6], [2, 0, 4, 0]], [[5, 0, 5, 0], [0, 4, 0, 5], [0, 2, 0, 5]], [[2, 0, 0, 3], [1, 0, 6, 0], [0, 1, 0, 1]], [[5, 0, 4, 0], [5, 0, 0, 4], [0, 2, 0, 4]], [[0, 4, 8, 0], [4, 0, 7, 0], [3, 0, 0, 6]], [[4, 0, 0, 6], [3, 0, 0, 4], [0, 3, 0, 3]], [[0, 5, 4, 0], [2, 0, 2, 0], [0, 3, 1, 0]], [[5, 0, 4, 0], [0, 3, 3, 0], [0, 3, 2, 0]], [[4, 0, 4, 0], [0, 1, 0, 3], [4, 0, 2, 0]], [[5, 0, 9, 0], [0, 3, 7, 0], [0, 2, 0, 5]], [[0, 3, 7, 0], [0, 3, 0, 4], [4, 0, 0, 3]], [[0, 3, 5, 0], [4, 0, 4, 0], [2, 0, 0, 3]], [[2, 0, 4, 0], [2, 0, 3, 0], [2, 0, 0, 6]], [[5, 0, 2, 0], [0, 2, 2, 0], [0, 2, 1, 0]], [[0, 5, 6, 0], [3, 0, 5, 0], [0, 1, 0, 3]], [[5, 0, 6, 0], [3, 0, 0, 9], [3, 0, 0, 8]], [[0, 5, 0, 5], [3, 0, 1, 0], [0, 3, 1, 0]], [[0, 4, 0, 2], [0, 3, 2, 0], [3, 0, 0, 2]], [[3, 0, 0, 9], [0, 5, 2, 0], [0, 5, 1, 0]], [[3, 0, 6, 0], [3, 0, 0, 6], [3, 0, 0, 4]], [[2, 0, 0, 10], [1, 0, 0, 7], [1, 0, 0, 3]], [[3, 0, 1, 0], [2, 0, 0, 3], [0, 4, 1, 0]], [[2, 0, 5, 0], [0, 3, 5, 0], [0, 3, 0, 9]], [[0, 3, 0, 8], [0, 3, 6, 0], [3, 0, 5, 0]], [[2, 0, 6, 0], [2, 0, 4, 0], [0, 2, 3, 0]], [[0, 4, 9, 0], [2, 0, 9, 0], [0, 4, 0, 3]], [[2, 0, 4, 0], [1, 0, 0, 5], [1, 0, 0, 4]], [[0, 2, 0, 10], [3, 0, 4, 0], [3, 0, 0, 8]], [[0, 5, 7, 0], [4, 0, 6, 0], [4, 0, 5, 0]], [[0, 4, 0, 2], [0, 3, 0, 1], [4, 0, 8, 0]], [[0, 5, 0, 6], [4, 0, 7, 0], [3, 0, 0, 4]], [[2, 0, 0, 6], [1, 0, 6, 0], [0, 3, 5, 0]], [[5, 0, 8, 0], [0, 3, 6, 0], [0, 1, 6, 0]], [[0, 1, 0, 7], [2, 0, 0, 7], [0, 1, 3, 0]], [[0, 5, 6, 0], [0, 3, 4, 0], [0, 3, 0, 4]], [[4, 0, 0, 8], [0, 4, 0, 8], [0, 4, 6, 0]], [[4, 0, 4, 0], [4, 0, 3, 0], [0, 3, 1, 0]], [[0, 0, 0, 0]]]
